\* 猫缶問題にゃ *\
Minimize
1缶あたりの材料の総コスト: 0.001 材料_ゲル + 0.01 材料_マトン + 0.008 材料_牛肉 + 0.002 材料_米
 + 0.013 材料_鶏肉 + 0.005 材料_麦
Subject To
タンパク質の必要量: 0.15 材料_マトン + 0.2 材料_牛肉 + 0.1 材料_鶏肉 + 0.04 材料_麦 >= 8
合計100%: 材料_ゲル + 材料_マトン + 材料_牛肉 + 材料_米 + 材料_鶏肉 + 材料_麦 = 100
脂肪の必要量: 0.11 材料_マトン + 0.1 材料_牛肉 + 0.01 材料_米 + 0.08 材料_鶏肉 + 0.01 材料_麦 >= 6
食塩の必要量: 0.007 材料_マトン + 0.005 材料_牛肉 + 0.002 材料_米 + 0.002 材料_鶏肉 + 0.008 材料_麦
 <= 0.4
食物繊維の必要量: 0.003 材料_マトン + 0.005 材料_牛肉 + 0.1 材料_米 + 0.001 材料_鶏肉 + 0.15 材料_麦 <= 2
End
